1111100 AB
305 332 349 366 378 391 404 416 427 440 452 462 475 491 502 518 535 555 576 597 615 633 649 670 681 694 708 722 739 753 770 782 794 811 825 842 852 863 874 884 894 904 916 927 939 950 959 968 979 990 1000 1016 1027 1038 1055 1071 1092 1106 1123 1147 1171 1194 1209 1225 1247 1266 1281 1300 1326 1344 1361 1376 1391 1405 1423 1439 14 45 76 117
1111100 AB red
485 1320 1350
1111100 AB green
1365
1111100 BA red
313 332 361 374 285
0000011 AB
308 339 370 401 432 464 494 514 539 565 595 635 665 690 713 737 761 785 809 832 856 881 906 931 956 980 1003 1027 1051 1076 1100 1124 1148 1172 1196 1223 1252 1274 1298 1328 1359 1391 1423 14 45 76 117
0000011 AB red
558 607 1118
0000011 BA red
499 550 287
